Route #1: 51 30 20 69 80 16 65 76 79 17 58 36 48 57 66 56 5
Route #2: 74 39 10 46 33 55 26 61 47 23 73 68 54 37 75 6
Route #3: 41 22 45 24 35 3 18 21 25 44 62 9 70 27
Route #4: 43 52 78 4 71 59 67 40 72 11 15 49 38 7 29 53 64 31 12 19
Route #5: 14 63 32 13 60 28 42 34 77
Route #6: 2 8
Route #7: 1 50
Route #8: 
Route #9: 
Route #10: 
cost 2461.1222395079467
